33D32945 STP File, STP Format Version 1.0

SECTION Comment
Name "i640-234-PCST"
Creator "Indaco Biazzo" 
Remark "derived from Incidence graph by Cees Duin"
END

SECTION Graph
Nodes 640
Edges 1280
E 1 46 299.000000
E 1 73 204.000000
E 1 246 199.000000
E 1 254 196.000000
E 1 321 202.000000
E 1 469 192.000000
E 1 470 203.000000
E 1 559 205.000000
E 2 45 308.000000
E 2 88 197.000000
E 2 330 192.000000
E 2 369 190.000000
E 2 538 205.000000
E 3 125 196.000000
E 3 402 193.000000
E 4 21 301.000000
E 4 181 204.000000
E 5 49 289.000000
E 5 83 205.000000
E 5 251 200.000000
E 6 18 305.000000
E 6 118 204.000000
E 6 412 205.000000
E 7 140 200.000000
E 7 226 207.000000
E 7 351 203.000000
E 7 610 197.000000
E 8 27 302.000000
E 8 29 292.000000
E 8 38 300.000000
E 8 339 203.000000
E 8 506 203.000000
E 8 559 196.000000
E 9 24 303.000000
E 9 123 202.000000
E 10 74 196.000000
E 10 139 199.000000
E 10 276 200.000000
E 10 299 193.000000
E 10 388 196.000000
E 10 440 197.000000
E 10 543 204.000000
E 10 551 196.000000
E 11 24 291.000000
E 12 56 190.000000
E 12 256 186.000000
E 12 270 197.000000
E 12 349 197.000000
E 12 375 193.000000
E 13 203 201.000000
E 13 291 196.000000
E 13 610 201.000000
E 14 117 208.000000
E 14 494 200.000000
E 15 148 200.000000
E 16 159 208.000000
E 16 454 194.000000
E 16 501 204.000000
E 17 517 203.000000
E 18 281 205.000000
E 18 389 196.000000
E 18 496 205.000000
E 19 50 305.000000
E 19 250 197.000000
E 20 51 200.000000
E 20 200 201.000000
E 20 210 198.000000
E 20 261 199.000000
E 20 291 204.000000
E 20 446 201.000000
E 20 509 208.000000
E 20 616 205.000000
E 21 183 192.000000
E 21 300 191.000000
E 21 392 201.000000
E 21 479 195.000000
E 22 310 209.000000
E 22 487 190.000000
E 23 311 205.000000
E 24 73 199.000000
E 24 225 213.000000
E 24 290 205.000000
E 24 335 203.000000
E 24 348 203.000000
E 24 462 205.000000
E 24 504 206.000000
E 24 564 204.000000
E 24 569 211.000000
E 25 127 194.000000
E 25 318 202.000000
E 25 493 193.000000
E 25 516 195.000000
E 26 168 200.000000
E 26 193 200.000000
E 26 331 196.000000
E 26 437 201.000000
E 27 57 196.000000
E 27 524 201.000000
E 27 612 199.000000
E 28 265 206.000000
E 28 354 202.000000
E 28 361 204.000000
E 28 474 189.000000
E 29 261 201.000000
E 29 500 207.000000
E 30 102 197.000000
E 30 149 203.000000
E 30 189 202.000000
E 30 206 195.000000
E 30 388 200.000000
E 31 214 197.000000
E 31 262 198.000000
E 31 265 204.000000
E 31 416 197.000000
E 32 63 199.000000
E 32 141 198.000000
E 33 190 189.000000
E 33 293 190.000000
E 33 411 204.000000
E 33 522 201.000000
E 33 610 193.000000
E 34 154 206.000000
E 35 110 189.000000
E 35 525 204.000000
E 35 586 204.000000
E 36 165 196.000000
E 36 322 198.000000
E 37 331 198.000000
E 37 498 200.000000
E 38 261 198.000000
E 38 294 197.000000
E 38 324 198.000000
E 38 511 198.000000
E 38 564 202.000000
E 39 223 202.000000
E 39 241 207.000000
E 39 413 203.000000
E 40 303 201.000000
E 40 474 190.000000
E 40 572 199.000000
E 40 593 200.000000
E 40 617 204.000000
E 41 403 196.000000
E 42 273 202.000000
E 42 539 201.000000
E 43 449 201.000000
E 44 345 203.000000
E 44 393 208.000000
E 44 502 197.000000
E 45 458 203.000000
E 45 589 201.000000
E 46 216 196.000000
E 47 77 191.000000
E 47 132 200.000000
E 47 296 200.000000
E 47 351 206.000000
E 47 442 202.000000
E 47 554 203.000000
E 48 458 197.000000
E 48 526 204.000000
E 48 545 200.000000
E 48 551 197.000000
E 48 613 206.000000
E 48 618 206.000000
E 48 625 190.000000
E 49 304 195.000000
E 49 344 199.000000
E 49 566 209.000000
E 49 619 204.000000
E 50 51 192.000000
E 50 162 201.000000
E 50 216 198.000000
E 50 225 200.000000
E 50 262 208.000000
E 50 474 191.000000
E 51 74 104.000000
E 51 348 103.000000
E 52 254 95.000000
E 52 560 104.000000
E 53 106 107.000000
E 53 246 103.000000
E 53 632 96.000000
E 54 95 97.000000
E 54 97 99.000000
E 54 168 103.000000
E 54 269 90.000000
E 54 429 103.000000
E 54 538 95.000000
E 54 611 100.000000
E 54 624 104.000000
E 55 58 100.000000
E 55 141 97.000000
E 55 596 107.000000
E 56 91 100.000000
E 56 168 101.000000
E 56 185 100.000000
E 56 260 101.000000
E 56 400 95.000000
E 57 102 102.000000
E 57 112 101.000000
E 57 142 102.000000
E 57 143 93.000000
E 57 214 111.000000
E 57 486 99.000000
E 57 576 96.000000
E 57 610 99.000000
E 58 548 107.000000
E 58 582 97.000000
E 59 143 99.000000
E 59 200 96.000000
E 59 402 95.000000
E 59 410 96.000000
E 60 256 101.000000
E 61 265 101.000000
E 61 413 96.000000
E 61 462 105.000000
E 62 64 101.000000
E 62 231 108.000000
E 62 311 101.000000
E 62 415 87.000000
E 63 98 98.000000
E 63 215 98.000000
E 63 266 109.000000
E 63 476 110.000000
E 64 261 98.000000
E 64 267 99.000000
E 64 484 97.000000
E 64 638 107.000000
E 65 169 95.000000
E 65 296 97.000000
E 65 434 98.000000
E 65 592 100.000000
E 66 110 101.000000
E 66 148 100.000000
E 66 389 103.000000
E 66 519 101.000000
E 67 85 95.000000
E 67 89 96.000000
E 67 116 100.000000
E 67 151 107.000000
E 67 264 97.000000
E 67 319 104.000000
E 67 321 101.000000
E 67 376 101.000000
E 67 607 101.000000
E 68 191 98.000000
E 68 333 91.000000
E 69 82 93.000000
E 70 236 104.000000
E 70 381 92.000000
E 70 467 89.000000
E 71 97 99.000000
E 71 149 99.000000
E 71 272 96.000000
E 71 474 106.000000
E 72 215 101.000000
E 72 387 97.000000
E 72 571 101.000000
E 72 599 100.000000
E 73 184 94.000000
E 73 271 106.000000
E 73 300 108.000000
E 73 389 107.000000
E 73 404 104.000000
E 73 417 100.000000
E 73 431 99.000000
E 73 486 99.000000
E 73 509 99.000000
E 74 240 102.000000
E 74 475 96.000000
E 75 356 99.000000
E 75 441 104.000000
E 75 444 103.000000
E 75 446 102.000000
E 76 86 101.000000
E 76 116 101.000000
E 76 141 100.000000
E 76 179 95.000000
E 76 190 94.000000
E 76 227 96.000000
E 76 294 105.000000
E 76 352 101.000000
E 76 489 108.000000
E 77 268 108.000000
E 77 591 101.000000
E 78 208 101.000000
E 78 226 93.000000
E 78 284 100.000000
E 78 477 101.000000
E 79 185 95.000000
E 79 193 96.000000
E 79 209 97.000000
E 79 307 92.000000
E 79 475 92.000000
E 79 632 102.000000
E 80 186 94.000000
E 80 215 103.000000
E 80 233 113.000000
E 80 435 92.000000
E 80 456 102.000000
E 80 544 100.000000
E 80 561 96.000000
E 81 147 99.000000
E 81 592 95.000000
E 81 636 102.000000
E 82 95 98.000000
E 82 127 95.000000
E 82 168 102.000000
E 82 333 99.000000
E 82 419 95.000000
E 82 433 102.000000
E 83 276 105.000000
E 83 610 99.000000
E 83 633 101.000000
E 84 270 102.000000
E 84 353 90.000000
E 84 510 100.000000
E 85 131 88.000000
E 85 484 97.000000
E 85 594 102.000000
E 86 180 104.000000
E 86 227 80.000000
E 86 288 93.000000
E 86 414 102.000000
E 87 566 104.000000
E 87 590 96.000000
E 88 536 100.000000
E 88 608 101.000000
E 89 452 97.000000
E 90 233 102.000000
E 90 344 96.000000
E 91 394 98.000000
E 91 440 95.000000
E 92 416 100.000000
E 92 560 109.000000
E 92 590 103.000000
E 92 596 102.000000
E 93 556 104.000000
E 94 150 92.000000
E 96 610 98.000000
E 97 149 101.000000
E 97 180 102.000000
E 97 337 102.000000
E 98 164 101.000000
E 98 173 99.000000
E 98 277 107.000000
E 98 314 93.000000
E 98 417 107.000000
E 98 430 98.000000
E 98 618 94.000000
E 98 623 95.000000
E 99 102 89.000000
E 99 224 103.000000
E 99 444 104.000000
E 100 349 102.000000
E 100 365 99.000000
E 100 403 101.000000
E 101 160 93.000000
E 101 243 103.000000
E 101 331 93.000000
E 101 563 97.000000
E 102 284 102.000000
E 102 576 104.000000
E 103 358 90.000000
E 103 424 101.000000
E 104 155 101.000000
E 104 354 98.000000
E 104 422 99.000000
E 104 630 108.000000
E 105 383 92.000000
E 105 429 97.000000
E 106 582 97.000000
E 106 609 102.000000
E 106 612 101.000000
E 107 202 96.000000
E 107 403 103.000000
E 107 508 88.000000
E 108 440 94.000000
E 108 447 100.000000
E 108 610 100.000000
E 109 175 99.000000
E 109 255 107.000000
E 109 391 101.000000
E 110 174 101.000000
E 110 289 99.000000
E 110 557 100.000000
E 110 588 100.000000
E 110 601 100.000000
E 111 171 100.000000
E 111 220 96.000000
E 111 268 92.000000
E 111 308 91.000000
E 111 353 101.000000
E 111 418 99.000000
E 111 517 97.000000
E 111 523 105.000000
E 112 162 106.000000
E 112 173 107.000000
E 112 194 111.000000
E 112 211 96.000000
E 112 244 95.000000
E 112 451 101.000000
E 112 553 100.000000
E 113 486 94.000000
E 113 548 100.000000
E 114 340 97.000000
E 114 369 108.000000
E 114 375 95.000000
E 115 289 93.000000
E 115 302 102.000000
E 115 535 97.000000
E 116 445 103.000000
E 117 210 99.000000
E 117 586 104.000000
E 118 218 104.000000
E 118 379 105.000000
E 118 524 106.000000
E 118 547 109.000000
E 119 282 102.000000
E 119 361 95.000000
E 119 378 100.000000
E 119 508 104.000000
E 119 619 102.000000
E 119 624 101.000000
E 120 393 106.000000
E 121 258 103.000000
E 121 293 95.000000
E 121 319 100.000000
E 121 637 99.000000
E 122 167 99.000000
E 122 370 105.000000
E 123 148 100.000000
E 123 206 101.000000
E 123 242 101.000000
E 123 322 90.000000
E 123 595 111.000000
E 124 452 98.000000
E 124 462 102.000000
E 125 193 103.000000
E 125 479 103.000000
E 126 434 99.000000
E 126 592 93.000000
E 127 206 91.000000
E 127 491 102.000000
E 127 526 91.000000
E 128 139 108.000000
E 128 208 90.000000
E 128 301 95.000000
E 128 342 91.000000
E 128 379 102.000000
E 128 411 106.000000
E 128 556 96.000000
E 128 605 99.000000
E 129 188 85.000000
E 129 528 99.000000
E 129 591 95.000000
E 130 301 94.000000
E 130 307 101.000000
E 130 586 102.000000
E 131 209 93.000000
E 131 570 107.000000
E 132 274 101.000000
E 132 467 96.000000
E 132 515 107.000000
E 133 306 101.000000
E 133 477 102.000000
E 133 531 101.000000
E 133 600 102.000000
E 134 399 99.000000
E 134 618 101.000000
E 135 207 100.000000
E 135 376 107.000000
E 135 523 96.000000
E 135 542 102.000000
E 136 239 92.000000
E 136 532 103.000000
E 137 417 111.000000
E 137 490 100.000000
E 137 549 102.000000
E 137 606 98.000000
E 138 182 101.000000
E 138 246 97.000000
E 138 371 98.000000
E 138 407 100.000000
E 138 525 93.000000
E 138 592 99.000000
E 139 296 100.000000
E 139 347 93.000000
E 139 566 103.000000
E 140 529 101.000000
E 140 626 102.000000
E 141 486 89.000000
E 141 508 96.000000
E 142 435 97.000000
E 142 554 105.000000
E 142 608 90.000000
E 143 188 104.000000
E 143 440 104.000000
E 144 235 100.000000
E 144 408 101.000000
E 144 457 115.000000
E 144 624 102.000000
E 145 400 99.000000
E 145 632 108.000000
E 146 301 91.000000
E 146 450 103.000000
E 146 619 94.000000
E 146 626 102.000000
E 147 175 106.000000
E 147 248 102.000000
E 147 273 96.000000
E 147 425 99.000000
E 147 565 108.000000
E 148 184 101.000000
E 148 391 92.000000
E 148 598 104.000000
E 149 188 94.000000
E 149 228 97.000000
E 149 240 103.000000
E 149 321 100.000000
E 149 370 104.000000
E 149 560 88.000000
E 150 221 98.000000
E 150 238 98.000000
E 151 198 101.000000
E 151 285 92.000000
E 151 394 104.000000
E 152 295 92.000000
E 152 379 104.000000
E 153 363 101.000000
E 153 472 84.000000
E 153 539 100.000000
E 154 268 93.000000
E 154 288 96.000000
E 154 610 100.000000
E 155 253 108.000000
E 155 400 101.000000
E 155 403 102.000000
E 156 513 111.000000
E 156 553 98.000000
E 157 389 96.000000
E 157 492 96.000000
E 158 291 93.000000
E 158 371 104.000000
E 158 457 96.000000
E 158 518 102.000000
E 159 335 109.000000
E 159 529 94.000000
E 160 220 101.000000
E 160 584 101.000000
E 161 348 104.000000
E 162 587 96.000000
E 163 295 102.000000
E 163 363 103.000000
E 163 459 101.000000
E 163 541 107.000000
E 165 429 91.000000
E 165 605 104.000000
E 166 279 90.000000
E 166 333 101.000000
E 167 282 91.000000
E 167 304 93.000000
E 167 482 101.000000
E 167 596 106.000000
E 168 377 98.000000
E 168 390 98.000000
E 168 452 96.000000
E 168 527 102.000000
E 169 319 94.000000
E 169 463 102.000000
E 170 272 100.000000
E 170 634 102.000000
E 171 578 110.000000
E 171 596 101.000000
E 172 428 108.000000
E 173 178 104.000000
E 173 275 95.000000
E 173 316 103.000000
E 173 479 95.000000
E 173 547 99.000000
E 174 185 100.000000
E 174 204 104.000000
E 174 504 105.000000
E 175 281 99.000000
E 175 462 92.000000
E 175 560 95.000000
E 175 600 100.000000
E 176 358 101.000000
E 176 366 94.000000
E 177 216 102.000000
E 177 232 98.000000
E 177 287 101.000000
E 177 306 97.000000
E 177 315 105.000000
E 177 370 100.000000
E 177 401 95.000000
E 177 460 93.000000
E 177 465 112.000000
E 177 496 101.000000
E 177 554 99.000000
E 178 250 96.000000
E 178 316 107.000000
E 178 344 100.000000
E 178 435 100.000000
E 178 551 103.000000
E 179 298 103.000000
E 179 397 98.000000
E 180 305 91.000000
E 180 475 89.000000
E 180 542 106.000000
E 180 579 98.000000
E 181 504 98.000000
E 181 551 92.000000
E 182 433 91.000000
E 183 448 110.000000
E 183 452 103.000000
E 183 506 87.000000
E 184 393 93.000000
E 184 420 100.000000
E 184 472 86.000000
E 184 506 107.000000
E 185 488 102.000000
E 185 547 102.000000
E 186 321 100.000000
E 186 486 100.000000
E 186 578 101.000000
E 187 240 97.000000
E 187 245 97.000000
E 187 286 96.000000
E 187 564 98.000000
E 188 366 93.000000
E 188 567 105.000000
E 190 204 97.000000
E 190 228 102.000000
E 190 325 96.000000
E 190 332 98.000000
E 190 407 104.000000
E 190 539 93.000000
E 191 225 98.000000
E 191 336 103.000000
E 191 512 97.000000
E 192 214 104.000000
E 192 373 101.000000
E 192 504 101.000000
E 193 354 99.000000
E 193 374 94.000000
E 193 419 93.000000
E 193 636 107.000000
E 194 274 106.000000
E 194 356 104.000000
E 194 469 92.000000
E 194 629 97.000000
E 195 510 94.000000
E 196 214 95.000000
E 196 352 103.000000
E 196 407 98.000000
E 197 487 102.000000
E 197 609 99.000000
E 198 474 96.000000
E 198 526 101.000000
E 198 556 103.000000
E 199 339 116.000000
E 199 411 99.000000
E 200 302 95.000000
E 200 479 97.000000
E 201 380 84.000000
E 201 514 101.000000
E 201 519 92.000000
E 202 230 93.000000
E 202 235 98.000000
E 202 294 99.000000
E 202 326 101.000000
E 202 526 97.000000
E 203 270 99.000000
E 203 336 105.000000
E 203 367 105.000000
E 204 230 93.000000
E 204 334 101.000000
E 204 427 106.000000
E 204 475 101.000000
E 205 276 99.000000
E 205 392 98.000000
E 205 395 109.000000
E 205 438 101.000000
E 207 370 100.000000
E 207 395 102.000000
E 207 542 109.000000
E 208 216 106.000000
E 208 387 103.000000
E 208 516 101.000000
E 208 544 89.000000
E 210 344 92.000000
E 210 524 98.000000
E 210 576 97.000000
E 211 213 91.000000
E 211 295 99.000000
E 212 316 101.000000
E 212 350 105.000000
E 212 404 98.000000
E 213 243 103.000000
E 213 254 96.000000
E 213 455 106.000000
E 213 553 103.000000
E 213 638 97.000000
E 214 338 98.000000
E 215 230 100.000000
E 215 323 99.000000
E 215 347 104.000000
E 215 364 100.000000
E 215 497 94.000000
E 215 555 102.000000
E 216 218 101.000000
E 217 425 98.000000
E 217 508 96.000000
E 218 474 96.000000
E 219 239 102.000000
E 219 327 99.000000
E 219 456 103.000000
E 220 258 100.000000
E 220 440 85.000000
E 220 555 100.000000
E 220 591 98.000000
E 221 278 106.000000
E 221 337 98.000000
E 221 343 93.000000
E 221 578 97.000000
E 221 594 100.000000
E 221 601 104.000000
E 222 330 103.000000
E 222 528 99.000000
E 222 591 96.000000
E 223 347 99.000000
E 223 369 105.000000
E 223 414 100.000000
E 223 429 111.000000
E 223 465 104.000000
E 223 619 102.000000
E 224 270 99.000000
E 224 335 106.000000
E 225 244 94.000000
E 225 329 96.000000
E 225 583 98.000000
E 226 261 101.000000
E 226 345 104.000000
E 227 235 104.000000
E 227 309 98.000000
E 227 384 104.000000
E 227 473 101.000000
E 227 507 97.000000
E 227 613 92.000000
E 228 276 102.000000
E 228 412 91.000000
E 229 486 104.000000
E 229 499 98.000000
E 230 387 102.000000
E 230 620 106.000000
E 231 259 91.000000
E 231 428 100.000000
E 231 484 101.000000
E 231 610 99.000000
E 232 294 103.000000
E 232 333 99.000000
E 232 463 100.000000
E 232 609 92.000000
E 233 424 96.000000
E 233 430 101.000000
E 234 406 102.000000
E 234 433 100.000000
E 234 457 103.000000
E 234 600 92.000000
E 235 306 108.000000
E 235 338 105.000000
E 235 512 92.000000
E 235 577 95.000000
E 235 634 106.000000
E 236 329 94.000000
E 236 417 95.000000
E 237 286 93.000000
E 237 308 105.000000
E 237 430 104.000000
E 237 628 101.000000
E 238 521 101.000000
E 238 529 99.000000
E 239 287 100.000000
E 239 384 94.000000
E 239 397 94.000000
E 240 249 99.000000
E 240 333 101.000000
E 240 371 90.000000
E 240 466 100.000000
E 240 548 91.000000
E 241 604 107.000000
E 242 439 101.000000
E 242 489 92.000000
E 242 602 96.000000
E 243 331 95.000000
E 245 305 109.000000
E 245 383 92.000000
E 245 526 107.000000
E 245 568 100.000000
E 245 570 99.000000
E 246 448 104.000000
E 246 535 101.000000
E 246 583 93.000000
E 246 589 100.000000
E 247 350 100.000000
E 247 560 104.000000
E 248 494 106.000000
E 249 340 102.000000
E 249 360 92.000000
E 249 507 91.000000
E 249 553 102.000000
E 249 560 102.000000
E 251 301 105.000000
E 252 341 98.000000
E 252 591 99.000000
E 253 454 99.000000
E 253 605 102.000000
E 254 279 93.000000
E 254 312 109.000000
E 254 446 103.000000
E 254 579 102.000000
E 254 615 102.000000
E 255 592 103.000000
E 256 290 89.000000
E 256 529 89.000000
E 256 536 100.000000
E 257 299 110.000000
E 258 260 102.000000
E 258 378 101.000000
E 258 467 100.000000
E 258 576 100.000000
E 258 618 92.000000
E 259 298 103.000000
E 260 423 107.000000
E 260 517 100.000000
E 262 546 97.000000
E 263 480 101.000000
E 263 572 102.000000
E 265 479 102.000000
E 266 327 95.000000
E 266 425 106.000000
E 266 446 90.000000
E 267 307 108.000000
E 267 467 99.000000
E 268 308 105.000000
E 269 302 99.000000
E 269 529 97.000000
E 270 285 93.000000
E 270 299 94.000000
E 270 623 97.000000
E 270 636 100.000000
E 271 335 105.000000
E 272 489 104.000000
E 272 580 103.000000
E 272 635 106.000000
E 273 289 98.000000
E 273 386 103.000000
E 274 480 94.000000
E 274 528 112.000000
E 274 639 111.000000
E 275 326 95.000000
E 275 386 102.000000
E 276 278 107.000000
E 276 456 104.000000
E 276 461 98.000000
E 276 463 105.000000
E 276 518 100.000000
E 276 526 104.000000
E 276 629 98.000000
E 277 489 100.000000
E 278 320 88.000000
E 278 504 92.000000
E 279 356 100.000000
E 279 369 91.000000
E 280 381 101.000000
E 281 473 101.000000
E 281 518 102.000000
E 282 581 99.000000
E 283 395 97.000000
E 283 492 100.000000
E 284 433 91.000000
E 285 546 100.000000
E 286 290 107.000000
E 286 307 97.000000
E 286 430 95.000000
E 286 551 96.000000
E 287 327 105.000000
E 287 331 95.000000
E 288 464 90.000000
E 289 417 97.000000
E 289 430 102.000000
E 289 454 91.000000
E 289 523 101.000000
E 289 614 105.000000
E 290 529 106.000000
E 290 608 98.000000
E 291 296 100.000000
E 291 329 101.000000
E 292 358 97.000000
E 292 373 93.000000
E 292 508 102.000000
E 293 325 101.000000
E 293 375 100.000000
E 293 471 92.000000
E 293 511 103.000000
E 294 519 98.000000
E 294 635 104.000000
E 295 406 100.000000
E 295 514 91.000000
E 296 592 99.000000
E 297 440 90.000000
E 298 304 101.000000
E 298 405 90.000000
E 298 603 103.000000
E 299 404 110.000000
E 301 592 103.000000
E 302 325 99.000000
E 302 357 105.000000
E 302 539 97.000000
E 303 350 107.000000
E 303 368 96.000000
E 303 461 99.000000
E 303 639 98.000000
E 305 397 104.000000
E 305 420 98.000000
E 305 483 96.000000
E 305 533 100.000000
E 305 536 100.000000
E 305 570 93.000000
E 305 620 100.000000
E 306 470 103.000000
E 306 557 91.000000
E 306 589 102.000000
E 306 591 100.000000
E 307 321 96.000000
E 307 343 99.000000
E 307 637 95.000000
E 310 639 103.000000
E 311 428 96.000000
E 311 500 102.000000
E 311 567 92.000000
E 312 350 96.000000
E 312 376 91.000000
E 312 408 103.000000
E 312 433 97.000000
E 313 415 104.000000
E 313 493 96.000000
E 313 521 95.000000
E 313 532 103.000000
E 314 414 95.000000
E 314 600 97.000000
E 315 418 95.000000
E 317 530 99.000000
E 317 638 101.000000
E 318 338 92.000000
E 318 510 90.000000
E 318 588 97.000000
E 319 408 94.000000
E 319 463 92.000000
E 320 340 101.000000
E 320 594 103.000000
E 320 620 98.000000
E 321 357 96.000000
E 321 561 99.000000
E 322 470 94.000000
E 324 369 104.000000
E 324 557 96.000000
E 324 604 96.000000
E 325 446 92.000000
E 325 479 101.000000
E 326 364 101.000000
E 326 474 96.000000
E 327 420 109.000000
E 328 388 100.000000
E 328 444 109.000000
E 328 551 106.000000
E 329 333 97.000000
E 330 424 98.000000
E 330 473 101.000000
E 331 349 101.000000
E 331 633 107.000000
E 332 419 94.000000
E 332 518 98.000000
E 332 549 102.000000
E 332 591 101.000000
E 333 381 98.000000
E 333 465 91.000000
E 334 635 103.000000
E 335 481 96.000000
E 335 600 102.000000
E 336 363 106.000000
E 336 427 89.000000
E 336 557 96.000000
E 336 623 105.000000
E 337 515 107.000000
E 337 595 96.000000
E 338 376 102.000000
E 338 468 104.000000
E 339 425 98.000000
E 339 463 101.000000
E 340 631 104.000000
E 341 428 99.000000
E 341 584 98.000000
E 341 591 100.000000
E 342 353 100.000000
E 342 517 103.000000
E 343 527 93.000000
E 343 545 92.000000
E 344 467 102.000000
E 345 378 103.000000
E 345 381 108.000000
E 345 508 98.000000
E 345 626 93.000000
E 346 597 108.000000
E 346 610 103.000000
E 347 427 85.000000
E 348 485 95.000000
E 348 547 92.000000
E 349 613 94.000000
E 351 376 94.000000
E 351 464 94.000000
E 351 597 99.000000
E 352 535 107.000000
E 353 454 102.000000
E 353 574 86.000000
E 353 607 94.000000
E 354 409 88.000000
E 354 638 102.000000
E 355 418 101.000000
E 355 465 98.000000
E 355 510 98.000000
E 355 621 103.000000
E 356 525 104.000000
E 357 412 97.000000
E 357 448 99.000000
E 358 538 92.000000
E 358 616 102.000000
E 359 396 94.000000
E 359 592 96.000000
E 359 627 97.000000
E 360 371 101.000000
E 360 418 105.000000
E 361 478 105.000000
E 362 411 96.000000
E 362 514 101.000000
E 362 559 94.000000
E 363 628 90.000000
E 366 498 98.000000
E 366 618 95.000000
E 367 474 92.000000
E 367 605 101.000000
E 369 504 94.000000
E 369 591 97.000000
E 370 431 97.000000
E 371 538 94.000000
E 371 540 99.000000
E 371 558 107.000000
E 372 419 98.000000
E 372 430 93.000000
E 372 582 103.000000
E 373 405 104.000000
E 373 591 85.000000
E 374 468 93.000000
E 376 469 108.000000
E 376 504 88.000000
E 380 384 92.000000
E 380 499 96.000000
E 380 586 97.000000
E 381 406 93.000000
E 381 449 94.000000
E 381 465 101.000000
E 381 485 98.000000
E 381 548 96.000000
E 381 593 104.000000
E 381 615 101.000000
E 382 526 90.000000
E 383 614 99.000000
E 385 468 109.000000
E 386 388 98.000000
E 386 525 91.000000
E 387 468 95.000000
E 388 420 96.000000
E 388 628 98.000000
E 389 498 99.000000
E 389 593 105.000000
E 390 459 99.000000
E 390 491 99.000000
E 392 396 101.000000
E 393 443 96.000000
E 393 600 105.000000
E 394 460 103.000000
E 395 443 91.000000
E 395 574 96.000000
E 396 436 103.000000
E 398 413 112.000000
E 399 432 102.000000
E 400 432 104.000000
E 401 571 98.000000
E 403 438 112.000000
E 403 520 94.000000
E 404 539 102.000000
E 404 563 100.000000
E 405 575 107.000000
E 406 477 93.000000
E 408 465 96.000000
E 410 437 101.000000
E 410 562 101.000000
E 411 610 97.000000
E 412 606 96.000000
E 413 468 101.000000
E 413 489 100.000000
E 413 504 103.000000
E 416 446 102.000000
E 417 468 95.000000
E 417 520 100.000000
E 418 613 102.000000
E 420 533 93.000000
E 420 594 98.000000
E 421 491 94.000000
E 422 493 97.000000
E 422 516 104.000000
E 422 552 98.000000
E 423 453 98.000000
E 423 483 97.000000
E 423 542 86.000000
E 423 571 101.000000
E 424 529 95.000000
E 425 494 107.000000
E 426 434 99.000000
E 426 566 105.000000
E 427 615 102.000000
E 428 600 102.000000
E 428 610 97.000000
E 429 626 97.000000
E 430 439 93.000000
E 430 575 107.000000
E 430 613 99.000000
E 431 479 99.000000
E 431 556 97.000000
E 432 492 95.000000
E 432 497 100.000000
E 433 636 105.000000
E 434 566 101.000000
E 434 610 97.000000
E 436 536 105.000000
E 437 585 92.000000
E 438 636 104.000000
E 438 640 98.000000
E 439 478 98.000000
E 440 535 98.000000
E 440 543 98.000000
E 441 444 105.000000
E 441 509 98.000000
E 441 614 108.000000
E 442 502 100.000000
E 443 524 96.000000
E 443 549 105.000000
E 443 574 104.000000
E 445 528 94.000000
E 445 627 102.000000
E 446 524 105.000000
E 446 600 107.000000
E 446 625 94.000000
E 447 473 102.000000
E 447 528 95.000000
E 447 584 94.000000
E 448 526 96.000000
E 448 578 100.000000
E 449 611 107.000000
E 450 619 100.000000
E 451 603 104.000000
E 452 536 103.000000
E 453 533 97.000000
E 453 639 91.000000
E 455 466 92.000000
E 455 623 100.000000
E 456 576 101.000000
E 458 631 94.000000
E 459 564 101.000000
E 461 486 105.000000
E 461 578 96.000000
E 462 580 102.000000
E 466 496 100.000000
E 466 560 99.000000
E 467 486 91.000000
E 468 528 102.000000
E 469 508 96.000000
E 469 528 87.000000
E 469 611 94.000000
E 470 523 94.000000
E 470 570 97.000000
E 471 521 107.000000
E 471 631 101.000000
E 472 514 97.000000
E 473 606 96.000000
E 474 523 102.000000
E 475 493 88.000000
E 475 522 109.000000
E 475 626 102.000000
E 476 570 100.000000
E 477 558 96.000000
E 479 487 92.000000
E 480 549 105.000000
E 481 619 100.000000
E 482 501 99.000000
E 483 562 97.000000
E 485 617 98.000000
E 486 505 100.000000
E 486 619 101.000000
E 487 496 99.000000
E 487 636 96.000000
E 488 569 99.000000
E 488 570 99.000000
E 489 633 95.000000
E 490 621 104.000000
E 494 549 97.000000
E 495 591 98.000000
E 496 622 97.000000
E 497 501 102.000000
E 497 573 102.000000
E 497 590 102.000000
E 498 614 97.000000
E 498 630 99.000000
E 499 610 104.000000
E 500 607 98.000000
E 502 593 85.000000
E 503 512 95.000000
E 504 521 103.000000
E 504 534 95.000000
E 505 616 104.000000
E 507 512 101.000000
E 510 638 98.000000
E 512 545 102.000000
E 512 580 102.000000
E 513 558 102.000000
E 514 603 102.000000
E 516 534 108.000000
E 516 640 102.000000
E 518 540 94.000000
E 518 578 100.000000
E 518 609 104.000000
E 518 634 93.000000
E 518 635 106.000000
E 521 530 102.000000
E 525 529 104.000000
E 525 541 94.000000
E 525 557 99.000000
E 528 599 103.000000
E 531 552 94.000000
E 532 581 104.000000
E 533 557 88.000000
E 537 542 101.000000
E 538 568 111.000000
E 539 570 105.000000
E 539 576 100.000000
E 541 621 100.000000
E 544 560 96.000000
E 545 623 94.000000
E 550 574 99.000000
E 552 607 98.000000
E 557 559 96.000000
E 557 639 103.000000
E 562 567 94.000000
E 565 601 102.000000
E 566 574 94.000000
E 574 588 116.000000
E 576 640 94.000000
E 579 595 90.000000
E 580 586 100.000000
E 580 589 113.000000
E 583 610 96.000000
E 584 623 96.000000
E 586 589 110.000000
E 586 599 97.000000
E 586 615 93.000000
E 589 634 104.000000
E 601 619 97.000000
E 616 640 100.000000
E 622 626 98.000000
END

SECTION Terminals
Terminals 50
TP 1 1008.000000
TP 2 468.000000
TP 3 712.000000
TP 4 1128.000000
TP 5 1008.000000
TP 6 1124.000000
TP 7 672.000000
TP 8 572.000000
TP 9 200.000000
TP 10 496.000000
TP 11 888.000000
TP 12 1176.000000
TP 13 1216.000000
TP 14 268.000000
TP 15 84.000000
TP 16 840.000000
TP 17 332.000000
TP 18 896.000000
TP 19 936.000000
TP 20 1004.000000
TP 21 688.000000
TP 22 908.000000
TP 23 272.000000
TP 24 40.000000
TP 25 1152.000000
TP 26 1052.000000
TP 27 284.000000
TP 28 892.000000
TP 29 32.000000
TP 30 416.000000
TP 31 1124.000000
TP 32 760.000000
TP 33 1016.000000
TP 34 816.000000
TP 35 456.000000
TP 36 364.000000
TP 37 700.000000
TP 38 368.000000
TP 39 244.000000
TP 40 992.000000
TP 41 120.000000
TP 42 808.000000
TP 43 612.000000
TP 44 976.000000
TP 45 16.000000
TP 46 1016.000000
TP 47 60.000000
TP 48 600.000000
TP 49 512.000000
TP 50 620.000000
END

EOF
